n = 443;
rows = 1277;
supports = [|
  {1},{1},
 |{1},27..418,
 |{2},{2},
 |{2},28..419,
 |{3},{3},
 |{3},29..420,
 |{4},{4},
 |{4},30..421,
 |{5},{5},
 |{5},31..422,
 |{6},{6},
 |{6},32..423,
 |{7},{7},
 |{7},33..424,
 |{8},{8},
 |{8},34..425,
 |{9},{9},
 |{9},35..426,
 |{10},{10},
 |{10},36..427,
 |{11},{11},
 |{11},37..428,
 |{12},{12},
 |{12},38..429,
 |{13},{13},
 |{13},39..430,
 |{14},{14},
 |{14},40..431,
 |{15},{15},
 |{15},41..432,
 |{16},{16},
 |{16},42..433,
 |{17},{17},
 |{17},43..434,
 |{18},{18},
 |{18},44..435,
 |{19},{19},
 |{19},45..436,
 |{20},{20},
 |{20},46..437,
 |{21},{21},
 |{21},47..438,
 |{22},{22},
 |{22},48..439,
 |{23},{23},
 |{23},49..440,
 |{24},{24},
 |{24},50..441,
 |{25},{25},
 |{25},51..442,
 |{26},{26},
 |{26},52..443,
 |{27},{27},
 |{27},{1},
 |{27},53..443,
 |{28},{28},
 |{28},1..2,
 |{28},54..443,
 |{29},{29},
 |{29},1..3,
 |{29},55..443,
 |{30},{30},
 |{30},1..4,
 |{30},56..443,
 |{31},{31},
 |{31},1..5,
 |{31},57..443,
 |{32},{32},
 |{32},1..6,
 |{32},58..443,
 |{33},{33},
 |{33},1..7,
 |{33},59..443,
 |{34},{34},
 |{34},1..8,
 |{34},60..443,
 |{35},{35},
 |{35},1..9,
 |{35},61..443,
 |{36},{36},
 |{36},1..10,
 |{36},62..443,
 |{37},{37},
 |{37},1..11,
 |{37},63..443,
 |{38},{38},
 |{38},1..12,
 |{38},64..443,
 |{39},{39},
 |{39},1..13,
 |{39},65..443,
 |{40},{40},
 |{40},1..14,
 |{40},66..443,
 |{41},{41},
 |{41},1..15,
 |{41},67..443,
 |{42},{42},
 |{42},1..16,
 |{42},68..443,
 |{43},{43},
 |{43},1..17,
 |{43},69..443,
 |{44},{44},
 |{44},1..18,
 |{44},70..443,
 |{45},{45},
 |{45},1..19,
 |{45},71..443,
 |{46},{46},
 |{46},1..20,
 |{46},72..443,
 |{47},{47},
 |{47},1..21,
 |{47},73..443,
 |{48},{48},
 |{48},1..22,
 |{48},74..443,
 |{49},{49},
 |{49},1..23,
 |{49},75..443,
 |{50},{50},
 |{50},1..24,
 |{50},76..443,
 |{51},{51},
 |{51},1..25,
 |{51},77..443,
 |{52},{52},
 |{52},1..26,
 |{52},78..443,
 |{53},{53},
 |{53},1..27,
 |{53},79..443,
 |{54},{54},
 |{54},1..28,
 |{54},80..443,
 |{55},{55},
 |{55},1..29,
 |{55},81..443,
 |{56},{56},
 |{56},1..30,
 |{56},82..443,
 |{57},{57},
 |{57},1..31,
 |{57},83..443,
 |{58},{58},
 |{58},1..32,
 |{58},84..443,
 |{59},{59},
 |{59},1..33,
 |{59},85..443,
 |{60},{60},
 |{60},1..34,
 |{60},86..443,
 |{61},{61},
 |{61},1..35,
 |{61},87..443,
 |{62},{62},
 |{62},1..36,
 |{62},88..443,
 |{63},{63},
 |{63},1..37,
 |{63},89..443,
 |{64},{64},
 |{64},1..38,
 |{64},90..443,
 |{65},{65},
 |{65},1..39,
 |{65},91..443,
 |{66},{66},
 |{66},1..40,
 |{66},92..443,
 |{67},{67},
 |{67},1..41,
 |{67},93..443,
 |{68},{68},
 |{68},1..42,
 |{68},94..443,
 |{69},{69},
 |{69},1..43,
 |{69},95..443,
 |{70},{70},
 |{70},1..44,
 |{70},96..443,
 |{71},{71},
 |{71},1..45,
 |{71},97..443,
 |{72},{72},
 |{72},1..46,
 |{72},98..443,
 |{73},{73},
 |{73},1..47,
 |{73},99..443,
 |{74},{74},
 |{74},1..48,
 |{74},100..443,
 |{75},{75},
 |{75},1..49,
 |{75},101..443,
 |{76},{76},
 |{76},1..50,
 |{76},102..443,
 |{77},{77},
 |{77},1..51,
 |{77},103..443,
 |{78},{78},
 |{78},1..52,
 |{78},104..443,
 |{79},{79},
 |{79},1..53,
 |{79},105..443,
 |{80},{80},
 |{80},1..54,
 |{80},106..443,
 |{81},{81},
 |{81},1..55,
 |{81},107..443,
 |{82},{82},
 |{82},1..56,
 |{82},108..443,
 |{83},{83},
 |{83},1..57,
 |{83},109..443,
 |{84},{84},
 |{84},1..58,
 |{84},110..443,
 |{85},{85},
 |{85},1..59,
 |{85},111..443,
 |{86},{86},
 |{86},1..60,
 |{86},112..443,
 |{87},{87},
 |{87},1..61,
 |{87},113..443,
 |{88},{88},
 |{88},1..62,
 |{88},114..443,
 |{89},{89},
 |{89},1..63,
 |{89},115..443,
 |{90},{90},
 |{90},1..64,
 |{90},116..443,
 |{91},{91},
 |{91},1..65,
 |{91},117..443,
 |{92},{92},
 |{92},1..66,
 |{92},118..443,
 |{93},{93},
 |{93},1..67,
 |{93},119..443,
 |{94},{94},
 |{94},1..68,
 |{94},120..443,
 |{95},{95},
 |{95},1..69,
 |{95},121..443,
 |{96},{96},
 |{96},1..70,
 |{96},122..443,
 |{97},{97},
 |{97},1..71,
 |{97},123..443,
 |{98},{98},
 |{98},1..72,
 |{98},124..443,
 |{99},{99},
 |{99},1..73,
 |{99},125..443,
 |{100},{100},
 |{100},1..74,
 |{100},126..443,
 |{101},{101},
 |{101},1..75,
 |{101},127..443,
 |{102},{102},
 |{102},1..76,
 |{102},128..443,
 |{103},{103},
 |{103},1..77,
 |{103},129..443,
 |{104},{104},
 |{104},1..78,
 |{104},130..443,
 |{105},{105},
 |{105},1..79,
 |{105},131..443,
 |{106},{106},
 |{106},1..80,
 |{106},132..443,
 |{107},{107},
 |{107},1..81,
 |{107},133..443,
 |{108},{108},
 |{108},1..82,
 |{108},134..443,
 |{109},{109},
 |{109},1..83,
 |{109},135..443,
 |{110},{110},
 |{110},1..84,
 |{110},136..443,
 |{111},{111},
 |{111},1..85,
 |{111},137..443,
 |{112},{112},
 |{112},1..86,
 |{112},138..443,
 |{113},{113},
 |{113},1..87,
 |{113},139..443,
 |{114},{114},
 |{114},1..88,
 |{114},140..443,
 |{115},{115},
 |{115},1..89,
 |{115},141..443,
 |{116},{116},
 |{116},1..90,
 |{116},142..443,
 |{117},{117},
 |{117},1..91,
 |{117},143..443,
 |{118},{118},
 |{118},1..92,
 |{118},144..443,
 |{119},{119},
 |{119},1..93,
 |{119},145..443,
 |{120},{120},
 |{120},1..94,
 |{120},146..443,
 |{121},{121},
 |{121},1..95,
 |{121},147..443,
 |{122},{122},
 |{122},1..96,
 |{122},148..443,
 |{123},{123},
 |{123},1..97,
 |{123},149..443,
 |{124},{124},
 |{124},1..98,
 |{124},150..443,
 |{125},{125},
 |{125},1..99,
 |{125},151..443,
 |{126},{126},
 |{126},1..100,
 |{126},152..443,
 |{127},{127},
 |{127},1..101,
 |{127},153..443,
 |{128},{128},
 |{128},1..102,
 |{128},154..443,
 |{129},{129},
 |{129},1..103,
 |{129},155..443,
 |{130},{130},
 |{130},1..104,
 |{130},156..443,
 |{131},{131},
 |{131},1..105,
 |{131},157..443,
 |{132},{132},
 |{132},1..106,
 |{132},158..443,
 |{133},{133},
 |{133},1..107,
 |{133},159..443,
 |{134},{134},
 |{134},1..108,
 |{134},160..443,
 |{135},{135},
 |{135},1..109,
 |{135},161..443,
 |{136},{136},
 |{136},1..110,
 |{136},162..443,
 |{137},{137},
 |{137},1..111,
 |{137},163..443,
 |{138},{138},
 |{138},1..112,
 |{138},164..443,
 |{139},{139},
 |{139},1..113,
 |{139},165..443,
 |{140},{140},
 |{140},1..114,
 |{140},166..443,
 |{141},{141},
 |{141},1..115,
 |{141},167..443,
 |{142},{142},
 |{142},1..116,
 |{142},168..443,
 |{143},{143},
 |{143},1..117,
 |{143},169..443,
 |{144},{144},
 |{144},1..118,
 |{144},170..443,
 |{145},{145},
 |{145},1..119,
 |{145},171..443,
 |{146},{146},
 |{146},1..120,
 |{146},172..443,
 |{147},{147},
 |{147},1..121,
 |{147},173..443,
 |{148},{148},
 |{148},1..122,
 |{148},174..443,
 |{149},{149},
 |{149},1..123,
 |{149},175..443,
 |{150},{150},
 |{150},1..124,
 |{150},176..443,
 |{151},{151},
 |{151},1..125,
 |{151},177..443,
 |{152},{152},
 |{152},1..126,
 |{152},178..443,
 |{153},{153},
 |{153},1..127,
 |{153},179..443,
 |{154},{154},
 |{154},1..128,
 |{154},180..443,
 |{155},{155},
 |{155},1..129,
 |{155},181..443,
 |{156},{156},
 |{156},1..130,
 |{156},182..443,
 |{157},{157},
 |{157},1..131,
 |{157},183..443,
 |{158},{158},
 |{158},1..132,
 |{158},184..443,
 |{159},{159},
 |{159},1..133,
 |{159},185..443,
 |{160},{160},
 |{160},1..134,
 |{160},186..443,
 |{161},{161},
 |{161},1..135,
 |{161},187..443,
 |{162},{162},
 |{162},1..136,
 |{162},188..443,
 |{163},{163},
 |{163},1..137,
 |{163},189..443,
 |{164},{164},
 |{164},1..138,
 |{164},190..443,
 |{165},{165},
 |{165},1..139,
 |{165},191..443,
 |{166},{166},
 |{166},1..140,
 |{166},192..443,
 |{167},{167},
 |{167},1..141,
 |{167},193..443,
 |{168},{168},
 |{168},1..142,
 |{168},194..443,
 |{169},{169},
 |{169},1..143,
 |{169},195..443,
 |{170},{170},
 |{170},1..144,
 |{170},196..443,
 |{171},{171},
 |{171},1..145,
 |{171},197..443,
 |{172},{172},
 |{172},1..146,
 |{172},198..443,
 |{173},{173},
 |{173},1..147,
 |{173},199..443,
 |{174},{174},
 |{174},1..148,
 |{174},200..443,
 |{175},{175},
 |{175},1..149,
 |{175},201..443,
 |{176},{176},
 |{176},1..150,
 |{176},202..443,
 |{177},{177},
 |{177},1..151,
 |{177},203..443,
 |{178},{178},
 |{178},1..152,
 |{178},204..443,
 |{179},{179},
 |{179},1..153,
 |{179},205..443,
 |{180},{180},
 |{180},1..154,
 |{180},206..443,
 |{181},{181},
 |{181},1..155,
 |{181},207..443,
 |{182},{182},
 |{182},1..156,
 |{182},208..443,
 |{183},{183},
 |{183},1..157,
 |{183},209..443,
 |{184},{184},
 |{184},1..158,
 |{184},210..443,
 |{185},{185},
 |{185},1..159,
 |{185},211..443,
 |{186},{186},
 |{186},1..160,
 |{186},212..443,
 |{187},{187},
 |{187},1..161,
 |{187},213..443,
 |{188},{188},
 |{188},1..162,
 |{188},214..443,
 |{189},{189},
 |{189},1..163,
 |{189},215..443,
 |{190},{190},
 |{190},1..164,
 |{190},216..443,
 |{191},{191},
 |{191},1..165,
 |{191},217..443,
 |{192},{192},
 |{192},1..166,
 |{192},218..443,
 |{193},{193},
 |{193},1..167,
 |{193},219..443,
 |{194},{194},
 |{194},1..168,
 |{194},220..443,
 |{195},{195},
 |{195},1..169,
 |{195},221..443,
 |{196},{196},
 |{196},1..170,
 |{196},222..443,
 |{197},{197},
 |{197},1..171,
 |{197},223..443,
 |{198},{198},
 |{198},1..172,
 |{198},224..443,
 |{199},{199},
 |{199},1..173,
 |{199},225..443,
 |{200},{200},
 |{200},1..174,
 |{200},226..443,
 |{201},{201},
 |{201},1..175,
 |{201},227..443,
 |{202},{202},
 |{202},1..176,
 |{202},228..443,
 |{203},{203},
 |{203},1..177,
 |{203},229..443,
 |{204},{204},
 |{204},1..178,
 |{204},230..443,
 |{205},{205},
 |{205},1..179,
 |{205},231..443,
 |{206},{206},
 |{206},1..180,
 |{206},232..443,
 |{207},{207},
 |{207},1..181,
 |{207},233..443,
 |{208},{208},
 |{208},1..182,
 |{208},234..443,
 |{209},{209},
 |{209},1..183,
 |{209},235..443,
 |{210},{210},
 |{210},1..184,
 |{210},236..443,
 |{211},{211},
 |{211},1..185,
 |{211},237..443,
 |{212},{212},
 |{212},1..186,
 |{212},238..443,
 |{213},{213},
 |{213},1..187,
 |{213},239..443,
 |{214},{214},
 |{214},1..188,
 |{214},240..443,
 |{215},{215},
 |{215},1..189,
 |{215},241..443,
 |{216},{216},
 |{216},1..190,
 |{216},242..443,
 |{217},{217},
 |{217},1..191,
 |{217},243..443,
 |{218},{218},
 |{218},1..192,
 |{218},244..443,
 |{219},{219},
 |{219},1..193,
 |{219},245..443,
 |{220},{220},
 |{220},1..194,
 |{220},246..443,
 |{221},{221},
 |{221},1..195,
 |{221},247..443,
 |{222},{222},
 |{222},1..196,
 |{222},248..443,
 |{223},{223},
 |{223},1..197,
 |{223},249..443,
 |{224},{224},
 |{224},1..198,
 |{224},250..443,
 |{225},{225},
 |{225},1..199,
 |{225},251..443,
 |{226},{226},
 |{226},1..200,
 |{226},252..443,
 |{227},{227},
 |{227},1..201,
 |{227},253..443,
 |{228},{228},
 |{228},1..202,
 |{228},254..443,
 |{229},{229},
 |{229},1..203,
 |{229},255..443,
 |{230},{230},
 |{230},1..204,
 |{230},256..443,
 |{231},{231},
 |{231},1..205,
 |{231},257..443,
 |{232},{232},
 |{232},1..206,
 |{232},258..443,
 |{233},{233},
 |{233},1..207,
 |{233},259..443,
 |{234},{234},
 |{234},1..208,
 |{234},260..443,
 |{235},{235},
 |{235},1..209,
 |{235},261..443,
 |{236},{236},
 |{236},1..210,
 |{236},262..443,
 |{237},{237},
 |{237},1..211,
 |{237},263..443,
 |{238},{238},
 |{238},1..212,
 |{238},264..443,
 |{239},{239},
 |{239},1..213,
 |{239},265..443,
 |{240},{240},
 |{240},1..214,
 |{240},266..443,
 |{241},{241},
 |{241},1..215,
 |{241},267..443,
 |{242},{242},
 |{242},1..216,
 |{242},268..443,
 |{243},{243},
 |{243},1..217,
 |{243},269..443,
 |{244},{244},
 |{244},1..218,
 |{244},270..443,
 |{245},{245},
 |{245},1..219,
 |{245},271..443,
 |{246},{246},
 |{246},1..220,
 |{246},272..443,
 |{247},{247},
 |{247},1..221,
 |{247},273..443,
 |{248},{248},
 |{248},1..222,
 |{248},274..443,
 |{249},{249},
 |{249},1..223,
 |{249},275..443,
 |{250},{250},
 |{250},1..224,
 |{250},276..443,
 |{251},{251},
 |{251},1..225,
 |{251},277..443,
 |{252},{252},
 |{252},1..226,
 |{252},278..443,
 |{253},{253},
 |{253},1..227,
 |{253},279..443,
 |{254},{254},
 |{254},1..228,
 |{254},280..443,
 |{255},{255},
 |{255},1..229,
 |{255},281..443,
 |{256},{256},
 |{256},1..230,
 |{256},282..443,
 |{257},{257},
 |{257},1..231,
 |{257},283..443,
 |{258},{258},
 |{258},1..232,
 |{258},284..443,
 |{259},{259},
 |{259},1..233,
 |{259},285..443,
 |{260},{260},
 |{260},1..234,
 |{260},286..443,
 |{261},{261},
 |{261},1..235,
 |{261},287..443,
 |{262},{262},
 |{262},1..236,
 |{262},288..443,
 |{263},{263},
 |{263},1..237,
 |{263},289..443,
 |{264},{264},
 |{264},1..238,
 |{264},290..443,
 |{265},{265},
 |{265},1..239,
 |{265},291..443,
 |{266},{266},
 |{266},1..240,
 |{266},292..443,
 |{267},{267},
 |{267},1..241,
 |{267},293..443,
 |{268},{268},
 |{268},1..242,
 |{268},294..443,
 |{269},{269},
 |{269},1..243,
 |{269},295..443,
 |{270},{270},
 |{270},1..244,
 |{270},296..443,
 |{271},{271},
 |{271},1..245,
 |{271},297..443,
 |{272},{272},
 |{272},1..246,
 |{272},298..443,
 |{273},{273},
 |{273},1..247,
 |{273},299..443,
 |{274},{274},
 |{274},1..248,
 |{274},300..443,
 |{275},{275},
 |{275},1..249,
 |{275},301..443,
 |{276},{276},
 |{276},1..250,
 |{276},302..443,
 |{277},{277},
 |{277},1..251,
 |{277},303..443,
 |{278},{278},
 |{278},1..252,
 |{278},304..443,
 |{279},{279},
 |{279},1..253,
 |{279},305..443,
 |{280},{280},
 |{280},1..254,
 |{280},306..443,
 |{281},{281},
 |{281},1..255,
 |{281},307..443,
 |{282},{282},
 |{282},1..256,
 |{282},308..443,
 |{283},{283},
 |{283},1..257,
 |{283},309..443,
 |{284},{284},
 |{284},1..258,
 |{284},310..443,
 |{285},{285},
 |{285},1..259,
 |{285},311..443,
 |{286},{286},
 |{286},1..260,
 |{286},312..443,
 |{287},{287},
 |{287},1..261,
 |{287},313..443,
 |{288},{288},
 |{288},1..262,
 |{288},314..443,
 |{289},{289},
 |{289},1..263,
 |{289},315..443,
 |{290},{290},
 |{290},1..264,
 |{290},316..443,
 |{291},{291},
 |{291},1..265,
 |{291},317..443,
 |{292},{292},
 |{292},1..266,
 |{292},318..443,
 |{293},{293},
 |{293},1..267,
 |{293},319..443,
 |{294},{294},
 |{294},1..268,
 |{294},320..443,
 |{295},{295},
 |{295},1..269,
 |{295},321..443,
 |{296},{296},
 |{296},1..270,
 |{296},322..443,
 |{297},{297},
 |{297},1..271,
 |{297},323..443,
 |{298},{298},
 |{298},1..272,
 |{298},324..443,
 |{299},{299},
 |{299},1..273,
 |{299},325..443,
 |{300},{300},
 |{300},1..274,
 |{300},326..443,
 |{301},{301},
 |{301},1..275,
 |{301},327..443,
 |{302},{302},
 |{302},1..276,
 |{302},328..443,
 |{303},{303},
 |{303},1..277,
 |{303},329..443,
 |{304},{304},
 |{304},1..278,
 |{304},330..443,
 |{305},{305},
 |{305},1..279,
 |{305},331..443,
 |{306},{306},
 |{306},1..280,
 |{306},332..443,
 |{307},{307},
 |{307},1..281,
 |{307},333..443,
 |{308},{308},
 |{308},1..282,
 |{308},334..443,
 |{309},{309},
 |{309},1..283,
 |{309},335..443,
 |{310},{310},
 |{310},1..284,
 |{310},336..443,
 |{311},{311},
 |{311},1..285,
 |{311},337..443,
 |{312},{312},
 |{312},1..286,
 |{312},338..443,
 |{313},{313},
 |{313},1..287,
 |{313},339..443,
 |{314},{314},
 |{314},1..288,
 |{314},340..443,
 |{315},{315},
 |{315},1..289,
 |{315},341..443,
 |{316},{316},
 |{316},1..290,
 |{316},342..443,
 |{317},{317},
 |{317},1..291,
 |{317},343..443,
 |{318},{318},
 |{318},1..292,
 |{318},344..443,
 |{319},{319},
 |{319},1..293,
 |{319},345..443,
 |{320},{320},
 |{320},1..294,
 |{320},346..443,
 |{321},{321},
 |{321},1..295,
 |{321},347..443,
 |{322},{322},
 |{322},1..296,
 |{322},348..443,
 |{323},{323},
 |{323},1..297,
 |{323},349..443,
 |{324},{324},
 |{324},1..298,
 |{324},350..443,
 |{325},{325},
 |{325},1..299,
 |{325},351..443,
 |{326},{326},
 |{326},1..300,
 |{326},352..443,
 |{327},{327},
 |{327},1..301,
 |{327},353..443,
 |{328},{328},
 |{328},1..302,
 |{328},354..443,
 |{329},{329},
 |{329},1..303,
 |{329},355..443,
 |{330},{330},
 |{330},1..304,
 |{330},356..443,
 |{331},{331},
 |{331},1..305,
 |{331},357..443,
 |{332},{332},
 |{332},1..306,
 |{332},358..443,
 |{333},{333},
 |{333},1..307,
 |{333},359..443,
 |{334},{334},
 |{334},1..308,
 |{334},360..443,
 |{335},{335},
 |{335},1..309,
 |{335},361..443,
 |{336},{336},
 |{336},1..310,
 |{336},362..443,
 |{337},{337},
 |{337},1..311,
 |{337},363..443,
 |{338},{338},
 |{338},1..312,
 |{338},364..443,
 |{339},{339},
 |{339},1..313,
 |{339},365..443,
 |{340},{340},
 |{340},1..314,
 |{340},366..443,
 |{341},{341},
 |{341},1..315,
 |{341},367..443,
 |{342},{342},
 |{342},1..316,
 |{342},368..443,
 |{343},{343},
 |{343},1..317,
 |{343},369..443,
 |{344},{344},
 |{344},1..318,
 |{344},370..443,
 |{345},{345},
 |{345},1..319,
 |{345},371..443,
 |{346},{346},
 |{346},1..320,
 |{346},372..443,
 |{347},{347},
 |{347},1..321,
 |{347},373..443,
 |{348},{348},
 |{348},1..322,
 |{348},374..443,
 |{349},{349},
 |{349},1..323,
 |{349},375..443,
 |{350},{350},
 |{350},1..324,
 |{350},376..443,
 |{351},{351},
 |{351},1..325,
 |{351},377..443,
 |{352},{352},
 |{352},1..326,
 |{352},378..443,
 |{353},{353},
 |{353},1..327,
 |{353},379..443,
 |{354},{354},
 |{354},1..328,
 |{354},380..443,
 |{355},{355},
 |{355},1..329,
 |{355},381..443,
 |{356},{356},
 |{356},1..330,
 |{356},382..443,
 |{357},{357},
 |{357},1..331,
 |{357},383..443,
 |{358},{358},
 |{358},1..332,
 |{358},384..443,
 |{359},{359},
 |{359},1..333,
 |{359},385..443,
 |{360},{360},
 |{360},1..334,
 |{360},386..443,
 |{361},{361},
 |{361},1..335,
 |{361},387..443,
 |{362},{362},
 |{362},1..336,
 |{362},388..443,
 |{363},{363},
 |{363},1..337,
 |{363},389..443,
 |{364},{364},
 |{364},1..338,
 |{364},390..443,
 |{365},{365},
 |{365},1..339,
 |{365},391..443,
 |{366},{366},
 |{366},1..340,
 |{366},392..443,
 |{367},{367},
 |{367},1..341,
 |{367},393..443,
 |{368},{368},
 |{368},1..342,
 |{368},394..443,
 |{369},{369},
 |{369},1..343,
 |{369},395..443,
 |{370},{370},
 |{370},1..344,
 |{370},396..443,
 |{371},{371},
 |{371},1..345,
 |{371},397..443,
 |{372},{372},
 |{372},1..346,
 |{372},398..443,
 |{373},{373},
 |{373},1..347,
 |{373},399..443,
 |{374},{374},
 |{374},1..348,
 |{374},400..443,
 |{375},{375},
 |{375},1..349,
 |{375},401..443,
 |{376},{376},
 |{376},1..350,
 |{376},402..443,
 |{377},{377},
 |{377},1..351,
 |{377},403..443,
 |{378},{378},
 |{378},1..352,
 |{378},404..443,
 |{379},{379},
 |{379},1..353,
 |{379},405..443,
 |{380},{380},
 |{380},1..354,
 |{380},406..443,
 |{381},{381},
 |{381},1..355,
 |{381},407..443,
 |{382},{382},
 |{382},1..356,
 |{382},408..443,
 |{383},{383},
 |{383},1..357,
 |{383},409..443,
 |{384},{384},
 |{384},1..358,
 |{384},410..443,
 |{385},{385},
 |{385},1..359,
 |{385},411..443,
 |{386},{386},
 |{386},1..360,
 |{386},412..443,
 |{387},{387},
 |{387},1..361,
 |{387},413..443,
 |{388},{388},
 |{388},1..362,
 |{388},414..443,
 |{389},{389},
 |{389},1..363,
 |{389},415..443,
 |{390},{390},
 |{390},1..364,
 |{390},416..443,
 |{391},{391},
 |{391},1..365,
 |{391},417..443,
 |{392},{392},
 |{392},1..366,
 |{392},418..443,
 |{393},{393},
 |{393},1..367,
 |{393},419..443,
 |{394},{394},
 |{394},1..368,
 |{394},420..443,
 |{395},{395},
 |{395},1..369,
 |{395},421..443,
 |{396},{396},
 |{396},1..370,
 |{396},422..443,
 |{397},{397},
 |{397},1..371,
 |{397},423..443,
 |{398},{398},
 |{398},1..372,
 |{398},424..443,
 |{399},{399},
 |{399},1..373,
 |{399},425..443,
 |{400},{400},
 |{400},1..374,
 |{400},426..443,
 |{401},{401},
 |{401},1..375,
 |{401},427..443,
 |{402},{402},
 |{402},1..376,
 |{402},428..443,
 |{403},{403},
 |{403},1..377,
 |{403},429..443,
 |{404},{404},
 |{404},1..378,
 |{404},430..443,
 |{405},{405},
 |{405},1..379,
 |{405},431..443,
 |{406},{406},
 |{406},1..380,
 |{406},432..443,
 |{407},{407},
 |{407},1..381,
 |{407},433..443,
 |{408},{408},
 |{408},1..382,
 |{408},434..443,
 |{409},{409},
 |{409},1..383,
 |{409},435..443,
 |{410},{410},
 |{410},1..384,
 |{410},436..443,
 |{411},{411},
 |{411},1..385,
 |{411},437..443,
 |{412},{412},
 |{412},1..386,
 |{412},438..443,
 |{413},{413},
 |{413},1..387,
 |{413},439..443,
 |{414},{414},
 |{414},1..388,
 |{414},440..443,
 |{415},{415},
 |{415},1..389,
 |{415},441..443,
 |{416},{416},
 |{416},1..390,
 |{416},442..443,
 |{417},{417},
 |{417},1..391,
 |{417},{443},
 |{418},{418},
 |{418},1..392,
 |{419},{419},
 |{419},2..393,
 |{420},{420},
 |{420},3..394,
 |{421},{421},
 |{421},4..395,
 |{422},{422},
 |{422},5..396,
 |{423},{423},
 |{423},6..397,
 |{424},{424},
 |{424},7..398,
 |{425},{425},
 |{425},8..399,
 |{426},{426},
 |{426},9..400,
 |{427},{427},
 |{427},10..401,
 |{428},{428},
 |{428},11..402,
 |{429},{429},
 |{429},12..403,
 |{430},{430},
 |{430},13..404,
 |{431},{431},
 |{431},14..405,
 |{432},{432},
 |{432},15..406,
 |{433},{433},
 |{433},16..407,
 |{434},{434},
 |{434},17..408,
 |{435},{435},
 |{435},18..409,
 |{436},{436},
 |{436},19..410,
 |{437},{437},
 |{437},20..411,
 |{438},{438},
 |{438},21..412,
 |{439},{439},
 |{439},22..413,
 |{440},{440},
 |{440},23..414,
 |{441},{441},
 |{441},24..415,
 |{442},{442},
 |{442},25..416,
 |{443},{443},
 |{443},26..417 |];

t = 590;

indexes = [|
    0,18,
  | 0,27,
  | 0,308,
  | 1,166,
  | 1,202,
  | 1,298,
  | 2,40,
  | 2,60,
  | 2,135,
  | 2,272,
  | 3,135,
  | 4,291,
  | 5,12,
  | 6,15,
  | 6,44,
  | 6,139,
  | 6,153,
  | 7,70,
  | 7,129,
  | 7,413,
  | 8,12,
  | 8,293,
  | 9,76,
  | 9,212,
  | 9,249,
  | 9,398,
  | 10,148,
  | 10,157,
  | 10,379,
  | 11,168,
  | 11,218,
  | 11,357,
  | 12,43,
  | 12,84,
  | 12,96,
  | 12,140,
  | 12,195,
  | 13,62,
  | 13,115,
  | 14,296,
  | 15,251,
  | 16,94,
  | 16,100,
  | 16,229,
  | 16,244,
  | 16,306,
  | 17,60,
  | 17,351,
  | 17,384,
  | 17,392,
  | 18,140,
  | 18,282,
  | 18,431,
  | 19,253,
  | 19,314,
  | 19,356,
  | 19,419,
  | 20,65,
  | 20,125,
  | 21,87,
  | 21,94,
  | 21,400,
  | 22,54,
  | 22,343,
  | 23,201,
  | 23,294,
  | 23,374,
  | 24,46,
  | 24,210,
  | 24,237,
  | 24,358,
  | 25,133,
  | 25,398,
  | 26,50,
  | 26,292,
  | 26,393,
  | 27,87,
  | 27,327,
  | 28,55,
  | 28,89,
  | 28,170,
  | 29,56,
  | 29,260,
  | 29,286,
  | 30,379,
  | 31,108,
  | 31,273,
  | 32,173,
  | 32,242,
  | 33,123,
  | 33,141,
  | 33,183,
  | 33,211,
  | 33,414,
  | 33,420,
  | 33,428,
  | 34,245,
  | 34,255,
  | 34,373,
  | 34,385,
  | 35,213,
  | 35,351,
  | 36,158,
  | 36,366,
  | 37,146,
  | 37,293,
  | 38,72,
  | 38,303,
  | 38,356,
  | 38,358,
  | 39,261,
  | 40,252,
  | 41,53,
  | 41,175,
  | 41,205,
  | 42,58,
  | 42,203,
  | 42,226,
  | 42,317,
  | 42,404,
  | 43,104,
  | 43,236,
  | 43,294,
  | 43,307,
  | 44,296,
  | 45,229,
  | 45,255,
  | 45,412,
  | 45,439,
  | 47,125,
  | 47,286,
  | 48,49,
  | 48,68,
  | 48,77,
  | 49,415,
  | 50,278,
  | 50,309,
  | 51,361,
  | 51,389,
  | 52,119,
  | 52,424,
  | 54,280,
  | 55,153,
  | 56,152,
  | 56,198,
  | 56,200,
  | 56,279,
  | 56,295,
  | 56,369,
  | 56,372,
  | 57,96,
  | 57,256,
  | 57,290,
  | 57,397,
  | 58,174,
  | 58,317,
  | 59,191,
  | 59,373,
  | 60,362,
  | 60,406,
  | 61,156,
  | 61,189,
  | 61,374,
  | 61,402,
  | 62,217,
  | 63,239,
  | 63,341,
  | 63,392,
  | 64,152,
  | 64,281,
  | 64,336,
  | 65,186,
  | 65,221,
  | 65,421,
  | 66,77,
  | 66,194,
  | 67,213,
  | 67,336,
  | 68,91,
  | 68,155,
  | 68,159,
  | 68,236,
  | 69,155,
  | 69,293,
  | 69,407,
  | 71,273,
  | 71,321,
  | 71,365,
  | 72,102,
  | 72,192,
  | 72,267,
  | 72,282,
  | 72,285,
  | 72,314,
  | 72,426,
  | 73,283,
  | 73,298,
  | 74,154,
  | 74,240,
  | 74,245,
  | 75,91,
  | 75,141,
  | 76,89,
  | 76,249,
  | 78,293,
  | 79,310,
  | 79,318,
  | 79,341,
  | 80,109,
  | 80,110,
  | 80,118,
  | 80,156,
  | 80,185,
  | 81,277,
  | 82,339,
  | 83,253,
  | 83,272,
  | 85,189,
  | 85,197,
  | 86,270,
  | 87,319,
  | 88,170,
  | 88,219,
  | 89,408,
  | 90,101,
  | 90,144,
  | 90,208,
  | 90,219,
  | 91,155,
  | 91,187,
  | 91,193,
  | 91,227,
  | 91,366,
  | 91,425,
  | 92,181,
  | 92,318,
  | 92,360,
  | 92,437,
  | 93,238,
  | 93,400,
  | 95,370,
  | 96,211,
  | 96,391,
  | 97,147,
  | 97,173,
  | 98,203,
  | 98,276,
  | 98,412,
  | 99,190,
  | 99,377,
  | 100,306,
  | 101,180,
  | 101,208,
  | 101,224,
  | 101,286,
  | 102,192,
  | 102,246,
  | 102,259,
  | 102,282,
  | 102,431,
  | 103,315,
  | 103,411,
  | 104,106,
  | 104,137,
  | 104,164,
  | 104,212,
  | 104,294,
  | 105,228,
  | 105,380,
  | 105,442,
  | 107,139,
  | 108,236,
  | 109,110,
  | 110,266,
  | 110,387,
  | 111,159,
  | 111,390,
  | 112,131,
  | 112,429,
  | 113,279,
  | 113,421,
  | 114,355,
  | 115,172,
  | 116,162,
  | 116,288,
  | 116,376,
  | 117,145,
  | 117,384,
  | 119,361,
  | 119,386,
  | 119,389,
  | 120,355,
  | 121,130,
  | 121,388,
  | 122,419,
  | 124,262,
  | 124,278,
  | 124,364,
  | 125,268,
  | 126,160,
  | 126,271,
  | 127,165,
  | 128,367,
  | 129,427,
  | 130,184,
  | 132,301,
  | 132,350,
  | 133,405,
  | 134,430,
  | 135,179,
  | 136,161,
  | 138,194,
  | 138,418,
  | 139,221,
  | 141,187,
  | 141,374,
  | 141,418,
  | 142,183,
  | 143,330,
  | 143,366,
  | 144,180,
  | 144,208,
  | 145,209,
  | 145,384,
  | 146,176,
  | 146,316,
  | 147,266,
  | 148,214,
  | 148,284,
  | 148,379,
  | 149,190,
  | 150,237,
  | 150,400,
  | 150,427,
  | 151,269,
  | 152,170,
  | 153,219,
  | 153,221,
  | 154,290,
  | 154,293,
  | 154,311,
  | 154,346,
  | 155,236,
  | 158,172,
  | 158,334,
  | 158,366,
  | 159,325,
  | 159,333,
  | 160,176,
  | 160,298,
  | 160,346,
  | 161,332,
  | 161,434,
  | 163,196,
  | 165,188,
  | 165,189,
  | 165,197,
  | 165,199,
  | 165,275,
  | 165,313,
  | 165,374,
  | 166,280,
  | 166,388,
  | 167,217,
  | 167,334,
  | 168,230,
  | 168,307,
  | 168,337,
  | 168,391,
  | 169,374,
  | 170,212,
  | 170,323,
  | 170,358,
  | 171,335,
  | 171,357,
  | 172,401,
  | 174,349,
  | 175,236,
  | 175,316,
  | 176,236,
  | 176,240,
  | 176,244,
  | 176,331,
  | 176,363,
  | 176,405,
  | 177,198,
  | 178,384,
  | 178,406,
  | 180,208,
  | 181,437,
  | 182,299,
  | 183,207,
  | 183,211,
  | 183,297,
  | 183,435,
  | 184,429,
  | 184,438,
  | 186,196,
  | 190,204,
  | 190,377,
  | 190,383,
  | 191,254,
  | 193,366,
  | 197,241,
  | 198,200,
  | 198,279,
  | 198,372,
  | 199,355,
  | 200,228,
  | 200,234,
  | 200,348,
  | 202,256,
  | 203,226,
  | 204,222,
  | 204,258,
  | 204,377,
  | 204,383,
  | 206,289,
  | 207,355,
  | 208,382,
  | 209,340,
  | 209,368,
  | 211,278,
  | 212,237,
  | 213,239,
  | 213,336,
  | 213,358,
  | 213,434,
  | 215,380,
  | 216,321,
  | 216,401,
  | 217,236,
  | 220,229,
  | 222,239,
  | 223,374,
  | 223,402,
  | 224,286,
  | 225,418,
  | 226,412,
  | 227,321,
  | 229,271,
  | 229,385,
  | 229,439,
  | 230,235,
  | 230,266,
  | 230,396,
  | 230,438,
  | 231,337,
  | 232,367,
  | 232,371,
  | 233,301,
  | 233,350,
  | 234,338,
  | 235,350,
  | 235,403,
  | 236,331,
  | 237,294,
  | 237,358,
  | 239,318,
  | 239,351,
  | 241,395,
  | 242,324,
  | 243,304,
  | 247,260,
  | 248,379,
  | 250,336,
  | 252,419,
  | 254,349,
  | 255,349,
  | 256,423,
  | 257,346,
  | 257,378,
  | 258,318,
  | 258,416,
  | 260,417,
  | 261,288,
  | 261,376,
  | 262,312,
  | 262,322,
  | 263,371,
  | 264,300,
  | 265,393,
  | 265,433,
  | 266,355,
  | 266,387,
  | 267,285,
  | 267,362,
  | 268,286,
  | 269,398,
  | 270,374,
  | 270,399,
  | 272,354,
  | 272,430,
  | 274,419,
  | 276,320,
  | 276,404,
  | 277,360,
  | 278,284,
  | 278,293,
  | 278,423,
  | 279,295,
  | 279,299,
  | 281,369,
  | 282,303,
  | 282,426,
  | 282,431,
  | 284,325,
  | 285,310,
  | 286,323,
  | 286,369,
  | 287,353,
  | 288,334,
  | 289,322,
  | 289,379,
  | 291,298,
  | 291,333,
  | 292,364,
  | 293,302,
  | 293,363,
  | 293,407,
  | 298,333,
  | 298,344,
  | 299,300,
  | 299,421,
  | 301,350,
  | 301,359,
  | 302,325,
  | 302,394,
  | 303,314,
  | 304,324,
  | 304,343,
  | 304,429,
  | 305,409,
  | 306,398,
  | 306,410,
  | 306,415,
  | 309,312,
  | 310,351,
  | 310,354,
  | 310,362,
  | 310,406,
  | 311,345,
  | 314,419,
  | 315,343,
  | 318,341,
  | 318,360,
  | 318,416,
  | 326,354,
  | 328,339,
  | 329,357,
  | 329,389,
  | 335,357,
  | 335,441,
  | 337,357,
  | 339,384,
  | 339,406,
  | 341,372,
  | 342,396,
  | 345,397,
  | 346,347,
  | 348,380,
  | 349,404,
  | 350,389,
  | 350,396,
  | 352,386,
  | 352,424,
  | 353,357,
  | 353,436,
  | 354,381,
  | 356,358,
  | 357,389,
  | 357,441,
  | 358,427,
  | 358,434,
  | 359,424,
  | 361,371,
  | 362,430,
  | 365,425,
  | 367,370,
  | 370,389,
  | 375,437,
  | 389,432,
  | 397,422,
  | 398,400,
  | 400,409,
  | 404,412,
  | 411,423,
  | 411,433,
  | 419,440,
  | 422,423 |];

